
Gurobi 11.0.3 (linux64) logging started Mon 18 Nov 2024 07:50:18 PM CST

Set parameter LogFile to value "/home/dlcole3/graph_abstraction/hierarchical_graphs/git_storage/CS1/HP_low_reserves/gurobi_logs/serial/logfile_ST5_7.log"

Gurobi 11.0.3 (linux64) logging started Mon 18 Nov 2024 07:52:18 PM CST

Set parameter LogFile to value "/home/dlcole3/graph_abstraction/hierarchical_graphs/git_storage/CS1/HP_low_reserves/gurobi_logs/serial/logfile_ST5_7.log"
Gurobi Optimizer version 11.0.3 build v11.0.3rc0 (linux64 - "Ubuntu 18.04.3 LTS")

CPU model: Intel(R) Xeon(R) CPU E5-2698 v4 @ 2.20GHz, instruction set [SSE2|AVX|AVX2]
Thread count: 40 physical cores, 80 logical processors, using up to 20 threads

Optimize a model with 29168 rows, 50688 columns and 136175 nonzeros
Model fingerprint: 0x6b19ad47
Variable types: 46944 continuous, 3744 integer (3744 binary)
Coefficient statistics:
  Matrix range     [6e-01, 2e+04]
  Objective range  [2e+00, 2e+04]
  Bounds range     [5e-02, 2e+05]
  RHS range        [5e-02, 7e+03]
Presolve removed 14415 rows and 38889 columns
Presolve time: 0.33s
Presolved: 14753 rows, 11799 columns, 63120 nonzeros
Variable types: 8759 continuous, 3040 integer (3040 binary)
Found heuristic solution: objective 168935.84200
Found heuristic solution: objective 159494.60550
Found heuristic solution: objective 130404.63150

Root relaxation: objective 2.547480e+02, 6883 iterations, 0.25 seconds (0.18 work units)

    Nodes    |    Current Node    |     Objective Bounds      |     Work
 Expl Unexpl |  Obj  Depth IntInf | Incumbent    BestBd   Gap | It/Node Time

*    0     0               0     254.7480016  254.74800  0.00%     -    1s

Explored 1 nodes (6883 simplex iterations) in 1.45 seconds (1.00 work units)
Thread count was 20 (of 80 available processors)

Solution count 5: 254.748 254.748 130405 ... 168936
No other solutions better than 254.748

Optimal solution found (tolerance 3.00e-03)
Best objective 2.547480000000e+02, best bound 2.547480000000e+02, gap 0.0000%

User-callback calls 1298, time in user-callback 0.00 sec
